1 0
2 4
3 3
4 4
5 2
6 6
7 4
8 4
9 6
10 1
11 4
12 2
13 4
14 1
15 1
16 0
17 1
18 0
19 0
20 5
21 5
22 0
23 4
24 3
25 6
26 3
27 6
28 2
29 1
30 4
31 2
32 1
33 3
34 5
35 3
36 5
37 0
38 4
39 7
40 6
41 2
42 4
43 6
44 2
45 2
46 0
47 0
48 4
49 2
50 5
51 7
52 7
53 3
54 7
55 2
56 7
57 5
58 6
59 0
60 4
61 1
62 1
63 4
64 4
65 2
66 5
67 0
68 6
69 6
70 4
71 5
72 6
73 4
74 5
75 6
76 3
77 6
78 3
79 2
80 2
81 6
82 7
83 0
84 1
85 5
86 1
87 3
88 7
89 1
90 1
91 6
92 2
93 3
94 4
95 3
96 5
97 5
98 6
99 2
100 0
101 0
102 1
103 7
104 0
105 4
106 6
107 0
108 4
109 5
110 1
111 3
112 1
113 1
114 3
115 5
116 0
117 1
118 5
119 6
120 7
121 6
122 7
123 2
124 0
125 4
126 1
127 7
128 7
129 4
130 5
131 4
132 7
133 6
134 6
135 0
136 2
137 0
138 7
139 2
140 7
141 2
142 2
143 7
144 6
145 0
146 3
147 3
148 3
149 7
150 2
151 2
152 7
153 3
154 1
155 7
156 2
157 6
158 7
159 7
160 5
161 2
162 3
163 3
164 0
165 0
166 2
167 5
168 3
169 1
170 0
171 6
172 1
173 2
174 5
175 7
176 6
177 7
178 7
179 6
180 0
181 6
182 1
183 6
184 4
185 3
186 6
187 1
188 5
189 5
190 6
191 5
192 6
193 3
194 0
195 2
196 1
197 3
198 4
199 0
200 0
201 0
202 6
203 4
204 4
205 7
206 3
207 4
208 5
209 7
210 7
211 7
212 0
213 2
214 7
215 6
216 4
217 5
218 0
219 6
220 6
221 0
222 5
223 3
224 3
225 3
226 7
227 0
228 4
229 7
230 7
231 6
232 3
233 5
234 2
235 2
236 5
237 3
238 5
239 6
240 3
241 1
242 3
243 1
244 7
245 3
246 6
247 2
248 1
249 5
250 4
